10J3M/DAT/10J3MNLX-12.dat
10 3
29.6797 5.4479
28.8364 5.37
16.098 4.0122
28.9983 5.385
22.3871 4.7315
25.5501 5.0547
27.6763 5.2608
30.1268 5.4888
20.5607 4.5344
24.6713 4.967
16.7508