10J3M/SOL/10J3MNLX-12.sol
solution status: optimal solution found
objective value:                     84.8615666666667
x#1#2                               0.359780041567178 	(obj:0)
x#1#3                               0.640219958432822 	(obj:0)
x#2#2                                               1 	(obj:0)
x#3#1                               0.448312386427593 	(obj:0)
x#3#3                               0.551687613572407 	(obj:0)
x#4#1                               0.846023278499793 	(obj:0)
x#4#3                               0.153976721500207 	(obj:0)
x#5#3                                               1 	(obj:0)
x#6#2                                               1 	(obj:0)
x#7#1                                               1 	(obj:0)
x#8#3                                               1 	(obj:0)
x#9#1                              0.0371483963597892 	(obj:0)
x#9#2                               0.962851603640211 	(obj:0)
x#10#1                                              1 	(obj:0)
z                                    84.8615666666667 	(obj:1)
